HUN,8,6,269
3,6,2,46,5,36,4,38,0,70,1,75
0,48,1,89,3,98,4,65,2,19,5,99
0,65,5,40,2,14,3,22,4,48,1,65
2,94,0,9,1,12,4,39,5,66,3,98
0,11,5,3,2,56,1,46,4,43,3,39
4,25,3,90,1,8,0,100,2,46,5,58
3,54,1,49,4,58,5,7,2,93,0,94
2,63,3,83,1,12,0,31,4,15,5,16
